language ESSENCE' 1.0

letting Ticks_Occurrence be
        [true, false, true, false, false, true, true, false, false, false, false, false, false, false, false, false,
         false;
             int(0..16)]
letting conjure_aux1 be 6
